sat
(:max-memory         17.95
 :memory             17.95
 :nlsat-conflicts    2
 :nlsat-propagations 10
 :nlsat-stages       7
 :num-allocs         18346
 :rlimit-count       1433
 :time               0.00
 :total-time         0.01)
